40
1 0 4
2 0 9
2 1 6
3 0 1
3 1 1
3 2 10
4 0 10
4 1 3
4 2 9
4 3 4
5 0 4
5 1 7
5 2 4
5 3 1
5 4 3
6 0 9
6 1 2
6 2 6
6 3 5
6 4 5
6 5 4
7 0 2
7 1 7
7 2 4
7 3 5
7 4 5
7 5 3
7 6 2
8 0 2
8 1 3
8 2 1
8 3 4
8 4 9
8 5 7
8 6 4
8 7 5
9 0 2
9 1 9
9 2 7
9 3 10
9 4 8
9 5 9
9 6 7
9 7 10
9 8 1
10 0 6
10 1 5
10 2 7
10 3 2
10 4 10
10 5 8
10 6 3
10 7 3
10 8 3
10 9 1
11 0 1
11 1 5
11 2 2
11 3 4
11 4 3
11 5 4
11 6 4
11 7 9
11 8 5
11 9 3
11 10 7
12 0 6
12 1 8
12 2 10
12 3 3
12 4 4
12 5 10
12 6 1
12 7 5
12 8 5
12 9 7
12 10 6
12 11 5
13 0 8
13 1 4
13 2 10
13 3 8
13 4 5
13 5 6
13 6 1
13 7 1
13 8 4
13 9 5
13 10 5
13 11 9
13 12 5
14 0 8
14 1 4
14 2 4
14 3 1
14 4 4
14 5 5
14 6 8
14 7 6
14 8 1
14 9 8
14 10 1
14 11 3
14 12 6
14 13 4
15 0 2
15 1 9
15 2 3
15 3 10
15 4 5
15 5 9
15 6 5
15 7 7
15 8 5
15 9 8
15 10 1
15 11 2
15 12 10
15 13 8
15 14 6
16 0 2
16 1 2
16 2 7
16 3 3
16 4 8
16 5 6
16 6 1
16 7 3
16 8 9
16 9 6
16 10 5
16 11 7
16 12 7
16 13 10
16 14 1
16 15 5
17 0 3
17 1 5
17 2 1
17 3 6
17 4 8
17 5 6
17 6 10
17 7 9
17 8 4
17 9 1
17 10 6
17 11 10
17 12 7
17 13 4
17 14 3
17 15 10
17 16 2
18 0 8
18 1 2
18 2 10
18 3 3
18 4 10
18 5 8
18 6 7
18 7 2
18 8 5
18 9 10
18 10 4
18 11 7
18 12 9
18 13 7
18 14 7
18 15 6
18 16 10
18 17 6
19 0 7
19 1 4
19 2 4
19 3 7
19 4 2
19 5 3
19 6 3
19 7 6
19 8 5
19 9 7
19 10 5
19 11 10
19 12 9
19 13 9
19 14 4
19 15 7
19 16 3
19 17 1
19 18 6
20 0 5
20 1 4
20 2 8
20 3 1
20 4 8
20 5 3
20 6 9
20 7 2
20 8 9
20 9 5
20 10 4
20 11 7
20 12 3
20 13 7
20 14 8
20 15 5
20 16 3
20 17 4
20 18 6
20 19 4
21 0 6
21 1 3
21 2 6
21 3 9
21 4 10
21 5 2
21 6 6
21 7 3
21 8 6
21 9 1
21 10 7
21 11 4
21 12 4
21 13 8
21 14 6
21 15 10
21 16 6
21 17 4
21 18 7
21 19 7
21 20 8
22 0 9
22 1 6
22 2 2
22 3 8
22 4 4
22 5 5
22 6 10
22 7 5
22 8 3
22 9 10
22 10 1
22 11 4
22 12 5
22 13 10
22 14 2
22 15 9
22 16 1
22 17 6
22 18 6
22 19 8
22 20 1
22 21 3
23 0 7
23 1 1
23 2 6
23 3 5
23 4 3
23 5 7
23 6 5
23 7 7
23 8 10
23 9 8
23 10 9
23 11 3
23 12 2
23 13 5
23 14 7
23 15 6
23 16 4
23 17 5
23 18 9
23 19 4
23 20 10
23 21 2
23 22 10
24 0 2
24 1 10
24 2 6
24 3 6
24 4 7
24 5 7
24 6 10
24 7 8
24 8 9
24 9 2
24 10 10
24 11 6
24 12 5
24 13 4
24 14 2
24 15 4
24 16 3
24 17 2
24 18 10
24 19 3
24 20 10
24 21 8
24 22 7
24 23 5
25 0 1
25 1 4
25 2 10
25 3 10
25 4 4
25 5 2
25 6 7
25 7 2
25 8 8
25 9 1
25 10 7
25 11 1
25 12 8
25 13 10
25 14 1
25 15 5
25 16 3
25 17 3
25 18 7
25 19 5
25 20 8
25 21 5
25 22 3
25 23 9
25 24 6
26 0 8
26 1 10
26 2 10
26 3 6
26 4 4
26 5 8
26 6 1
26 7 2
26 8 1
26 9 5
26 10 10
26 11 6
26 12 9
26 13 2
26 14 1
26 15 5
26 16 4
26 17 5
26 18 7
26 19 6
26 20 5
26 21 1
26 22 10
26 23 4
26 24 8
26 25 9
27 0 1
27 1 7
27 2 6
27 3 6
27 4 4
27 5 4
27 6 2
27 7 3
27 8 1
27 9 6
27 10 7
27 11 3
27 12 4
27 13 7
27 14 1
27 15 2
27 16 6
27 17 2
27 18 6
27 19 8
27 20 2
27 21 6
27 22 6
27 23 3
27 24 5
27 25 4
27 26 7
28 0 3
28 1 10
28 2 5
28 3 7
28 4 3
28 5 3
28 6 4
28 7 6
28 8 6
28 9 5
28 10 7
28 11 1
28 12 6
28 13 5
28 14 6
28 15 6
28 16 4
28 17 8
28 18 5
28 19 6
28 20 6
28 21 9
28 22 8
28 23 8
28 24 5
28 25 7
28 26 1
28 27 6
29 0 5
29 1 10
29 2 4
29 3 6
29 4 5
29 5 10
29 6 1
29 7 8
29 8 4
29 9 6
29 10 5
29 11 4
29 12 9
29 13 7
29 14 6
29 15 6
29 16 5
29 17 2
29 18 7
29 19 6
29 20 5
29 21 6
29 22 3
29 23 8
29 24 3
29 25 2
29 26 10
29 27 6
29 28 5
30 0 10
30 1 5
30 2 4
30 3 7
30 4 2
30 5 8
30 6 4
30 7 1
30 8 10
30 9 4
30 10 4
30 11 3
30 12 10
30 13 5
30 14 5
30 15 2
30 16 9
30 17 5
30 18 7
30 19 1
30 20 2
30 21 5
30 22 9
30 23 1
30 24 8
30 25 9
30 26 10
30 27 2
30 28 1
30 29 8
31 0 8
31 1 1
31 2 4
31 3 5
31 4 8
31 5 8
31 6 4
31 7 3
31 8 10
31 9 3
31 10 7
31 11 3
31 12 8
31 13 5
31 14 4
31 15 9
31 16 5
31 17 7
31 18 3
31 19 5
31 20 6
31 21 9
31 22 3
31 23 6
31 24 6
31 25 2
31 26 8
31 27 5
31 28 4
31 29 8
31 30 9
32 0 10
32 1 7
32 2 2
32 3 6
32 4 6
32 5 8
32 6 5
32 7 9
32 8 2
32 9 6
32 10 2
32 11 9
32 12 4
32 13 10
32 14 10
32 15 2
32 16 3
32 17 7
32 18 7
32 19 10
32 20 1
32 21 1
32 22 9
32 23 6
32 24 2
32 25 6
32 26 1
32 27 1
32 28 5
32 29 9
32 30 2
32 31 6
33 0 9
33 1 8
33 2 10
33 3 6
33 4 7
33 5 5
33 6 10
33 7 5
33 8 3
33 9 8
33 10 3
33 11 3
33 12 4
33 13 5
33 14 6
33 15 2
33 16 5
33 17 3
33 18 6
33 19 4
33 20 7
33 21 6
33 22 3
33 23 10
33 24 1
33 25 2
33 26 2
33 27 6
33 28 4
33 29 5
33 30 4
33 31 9
33 32 7
34 0 3
34 1 7
34 2 2
34 3 2
34 4 5
34 5 4
34 6 6
34 7 10
34 8 6
34 9 9
34 10 8
34 11 4
34 12 9
34 13 9
34 14 3
34 15 10
34 16 1
34 17 4
34 18 4
34 19 8
34 20 8
34 21 7
34 22 10
34 23 5
34 24 10
34 25 1
34 26 9
34 27 8
34 28 1
34 29 3
34 30 8
34 31 7
34 32 1
34 33 2
35 0 7
35 1 8
35 2 8
35 3 9
35 4 3
35 5 6
35 6 6
35 7 2
35 8 1
35 9 5
35 10 5
35 11 7
35 12 7
35 13 6
35 14 2
35 15 10
35 16 3
35 17 8
35 18 9
35 19 3
35 20 7
35 21 10
35 22 7
35 23 2
35 24 2
35 25 8
35 26 3
35 27 1
35 28 1
35 29 3
35 30 10
35 31 5
35 32 3
35 33 9
35 34 4
36 0 9
36 1 2
36 2 4
36 3 4
36 4 4
36 5 10
36 6 5
36 7 8
36 8 10
36 9 2
36 10 2
36 11 8
36 12 4
36 13 2
36 14 6
36 15 6
36 16 2
36 17 7
36 18 8
36 19 1
36 20 3
36 21 7
36 22 2
36 23 8
36 24 1
36 25 5
36 26 3
36 27 8
36 28 9
36 29 5
36 30 1
36 31 9
36 32 9
36 33 5
36 34 5
36 35 1
37 0 1
37 1 2
37 2 8
37 3 6
37 4 1
37 5 2
37 6 2
37 7 5
37 8 1
37 9 1
37 10 3
37 11 3
37 12 1
37 13 5
37 14 7
37 15 4
37 16 10
37 17 4
37 18 2
37 19 2
37 20 1
37 21 6
37 22 10
37 23 6
37 24 7
37 25 7
37 26 6
37 27 1
37 28 2
37 29 10
37 30 9
37 31 5
37 32 2
37 33 3
37 34 5
37 35 2
37 36 9
38 0 9
38 1 4
38 2 3
38 3 7
38 4 10
38 5 9
38 6 2
38 7 2
38 8 6
38 9 4
38 10 1
38 11 10
38 12 8
38 13 2
38 14 4
38 15 6
38 16 1
38 17 2
38 18 6
38 19 2
38 20 8
38 21 10
38 22 8
38 23 6
38 24 3
38 25 2
38 26 2
38 27 9
38 28 9
38 29 8
38 30 4
38 31 9
38 32 6
38 33 8
38 34 1
38 35 7
38 36 1
38 37 7
39 0 5
39 1 4
39 2 6
39 3 6
39 4 4
39 5 1
39 6 7
39 7 4
39 8 9
39 9 9
39 10 3
39 11 7
39 12 9
39 13 9
39 14 3
39 15 2
39 16 4
39 17 7
39 18 9
39 19 6
39 20 6
39 21 8
39 22 7
39 23 10
39 24 9
39 25 6
39 26 6
39 27 6
39 28 4
39 29 10
39 30 9
39 31 4
39 32 8
39 33 6
39 34 5
39 35 3
39 36 2
39 37 3
39 38 10
